p cnf 65 242
4 -3 0
4 -3 0
3 -4 0
-2 4 -5 0
2 -4 -5 0
-2 -4 5 0
2 4 5 0
6 1 0
6 5 0
-1 -5 -6 0
7 -1 0
7 1 0
-9 -8 0
-9 1 0
8 -1 9 0
-10 -7 0
-10 -9 0
7 9 10 0
6 -10 -11 0
-6 10 -11 0
6 10 11 0
-6 -10 11 0
13 12 0
13 8 0
-12 -8 -13 0
-14 3 0
-14 7 0
-3 -7 14 0
-13 -14 -15 0
13 14 -15 0
-13 14 15 0
13 -14 15 0
-11 15 -16 0
11 -15 -16 0
-11 -15 16 0
11 15 16 0
-18 7 0
-18 3 0
-7 -3 18 0
4 -18 -19 0
-4 18 -19 0
4 18 19 0
-4 -18 19 0
20 17 0
20 19 0
-17 -19 -20 0
3 -20 -21 0
-3 20 -21 0
3 20 21 0
-3 -20 21 0
4 2 -22 0
-4 -2 -22 0
4 -2 22 0
-4 2 22 0
-24 22 0
-24 -23 0
-22 23 24 0
-9 24 -25 0
9 -24 -25 0
-9 -24 25 0
9 24 25 0
25 -26 -27 0
-25 26 -27 0
25 26 27 0
-25 -26 27 0
21 27 -28 0
-21 -27 -28 0
21 -27 28 0
-21 27 28 0
-3 -5 -29 0
3 5 -29 0
-3 5 29 0
3 -5 29 0
-31 -1 0
-31 -30 0
1 30 31 0
32 29 0
32 31 0
-29 -31 -32 0
-28 32 -33 0
28 -32 -33 0
-28 -32 33 0
28 32 33 0
34 18 0
34 2 0
-18 -2 -34 0
33 -34 -35 0
-33 34 -35 0
33 34 35 0
-33 -34 35 0
-36 -17 0
-36 4 0
17 -4 36 0
-37 -36 0
-37 26 0
36 -26 37 0
-39 -17 0
-39 38 0
17 -38 39 0
40 -5 0
40 -39 0
5 39 -40 0
41 37 0
41 40 0
-37 -40 -41 0
1 3 -42 0
-1 -3 -42 0
1 -3 42 0
-1 3 42 0
-43 42 0
-43 -26 0
-42 26 43 0
44 8 0
44 30 0
-8 -30 -44 0
45 24 0
45 -25 0
-24 25 -45 0
-44 -45 -46 0
44 45 -46 0
-44 45 46 0
44 -45 46 0
-43 46 -47 0
43 -46 -47 0
-43 -46 47 0
43 46 47 0
48 17 0
48 38 0
-17 -38 -48 0
-47 -48 -49 0
47 48 -49 0
-47 48 49 0
47 -48 49 0
-8 -50 0
8 -50 0
51 -7 0
51 50 0
7 -50 -51 0
52 51 0
52 26 0
-51 -26 -52 0
53 -1 0
53 -7 0
1 7 -53 0
-53 -36 -54 0
53 36 -54 0
-53 36 54 0
53 -36 54 0
55 38 0
55 -26 0
-38 26 -55 0
56 38 0
56 -55 0
-38 55 -56 0
54 56 -57 0
-54 -56 -57 0
54 -56 57 0
-54 56 57 0
52 -57 -58 0
-52 57 -58 0
52 57 58 0
-52 -57 58 0
59 -26 0
59 -36 0
26 36 -59 0
-59 -54 -60 0
59 54 -60 0
-59 54 60 0
59 -54 60 0
-58 60 -61 0
58 -60 -61 0
-58 -60 61 0
58 60 61 0
-62 49 0
-62 -61 0
-49 61 62 0
63 41 0
63 -62 0
-41 62 -63 0
64 -35 0
64 63 0
35 -63 -64 0
-65 -16 0
-65 64 0
16 -64 65 0
46 6 16 0
-18 56 -54 29 1 0
-8 -38 12 -48 45 0
-13 -47 54 0
-64 -12 0
22 32 -12 31 0
-40 42 -57 -12 64 3 0
30 57 -29 0
41 -6 51 -25 0
27 43 16 -49 0
23 -18 58 -33 14 0
-62 -64 36 2 0
23 -32 -10 -41 38 -26 0
47 -31 0
-45 4 18 52 0
-16 -32 14 -25 24 0
2 -21 36 0
18 59 0
38 -61 2 36 -41 0
11 -26 -21 0
-60 30 0
21 -17 -4 0
-8 -25 -46 0
-17 14 35 0
-43 61 12 -53 0
-64 5 49 57 30 0
24 9 39 0
16 -59 -25 51 -37 0
23 -58 -32 0
-36 -44 58 0
-33 -29 -1 17 -20 0
17 9 -56 14 21 20 0
-3 34 -55 44 0
-24 -16 -39 -27 0
36 16 56 46 53 0
-39 21 60 0
15 -12 -13 -63 -22 32 0
-15 -61 53 21 0
-12 49 8 22 -20 -44 0
-4 -49 -38 -24 -31 0
13 -49 38 21 -14 0
45 -20 -56 0
58 -38 -41 0
-65 24 2 0
-47 54 50 -8 3 0
-45 -5 -30 -2 0
9 58 12 -4 -49 -32 0
-47 -4 40 11 0
-63 -17 -57 65 -11 -27 0
-40 -35 0
-53 -37 0
55 53 -18 -17 0
-24 53 22 0
22 18 58 23 1 0
-28 53 44 -58 0
-8 22 42 -3 0
65 0
